n_res = 4;
rc = [ 28, 37, 35, 24 ];
n_tasks = 30;
d = [ 2, 2, 7, 5, 9, 9, 3, 10, 10, 6, 3, 7, 5, 8, 1, 7, 3, 3, 8, 9, 6, 3, 6, 7, 9, 2, 7, 1, 7, 6 ];
rr = [| 5, 0, 10, 8, 3, 0, 3, 0, 6, 8, 5, 10, 0, 4, 3, 2, 2, 2, 6, 6, 3, 3, 8, 4, 0, 10, 5, 5, 0, 0
      | 8, 10, 10, 6, 0, 8, 10, 3, 5, 0, 8, 6, 5, 8, 2, 3, 0, 7, 2, 3, 1, 4, 7, 9, 3, 1, 8, 0, 1, 0
      | 10, 6, 5, 5, 8, 5, 6, 0, 0, 5, 2, 0, 6, 8, 0, 0, 9, 9, 7, 2, 7, 3, 3, 1, 9, 1, 2, 0, 10, 7
      | 6, 7, 0, 0, 6, 0, 7, 4, 0, 2, 4, 7, 7, 0, 4, 0, 0, 5, 6, 3, 0, 4, 8, 2, 0, 5, 0, 8, 0, 2 |];
suc = [ { 2 }, 
        { 1 }, 
        { 4 }, 
        { 3 }, 
        { 6 }, 
        { 5 }, 
        { 8 }, 
        { 7 }, 
        { 10 }, 
        { 9 }, 
        { 12 }, 
        { 11 }, 
        { 14 }, 
        { 13 }, 
        { 16 }, 
        { 15 }, 
        { 18 }, 
        { 17 }, 
        { 20 }, 
        { 19 }, 
        { 22 }, 
        { 21 }, 
        { 24 }, 
        { 23 }, 
        { 26 }, 
        { 25 }, 
        { 28 }, 
        { 27 }, 
        { 30 }, 
        { 29 }]; 
